WARNING: for repeatability, setting FPU to use double precision
============================[ Problem Statistics ]=============================
|                                                                             |
|  Number of variables:           475                                         |
|  Number of clauses:             791                                         |
|  Parse time:                   0.00 s                                       |
|                                                                             |
===============================================================================
Solved by unit propagation
restarts              : 0
conflicts             : 0              (0 /sec)
decisions             : 0              (-nan % random) (0 /sec)
propagations          : 474            (923977 /sec)
conflict literals     : 0              (-nan % deleted)
Memory used           : 6.00 MB
CPU time              : 0.000513 s

UNSATISFIABLE
